RT is False
Default write of storage_offers_DA.csv just to have a file (but constraint should be inactive)
Reading model...
...model read.
creating competitive generators file...
...competitive generators recorded.
Loading data...
.. day-ahead data read.
Compiling instance...
...instance created.
Creating Offer Mitigation (model will solve as dispatch if TRUE)...
...storage offer mitigation file created
Converting model to MPEC...
...converted
MIP
NOTE: initial MIP solve with only storage competitive to get feasible solution
Solving...

Welcome to IBM(R) ILOG(R) CPLEX(R) Interactive Optimizer 12.9.0.0
  with Simplex, Mixed Integer & Barrier Optimizers
5725-A06 5725-A29 5724-Y48 5724-Y49 5724-Y54 5724-Y55 5655-Y21
Copyright IBM Corp. 1988, 2019.  All Rights Reserved.

Type 'help' for a list of available commands.
Type 'help' followed by a command name for more
information on commands.

CPLEX> Logfile 'cplex.log' closed.
Logfile 'C:\Users\Luke\Desktop\competitiveMPEC_1.16\logs\tmpkmvjczoz.cplex.log' open.
CPLEX> New value for parallel optimization mode: -1
CPLEX> New value for mixed integer optimality gap tolerance: 0.01
CPLEX> New value for feasibility tolerance: 0.0001
CPLEX> New value for deterministic time limit in ticks: 250000
CPLEX> Problem 'C:\Users\Luke\Desktop\competitiveMPEC_1.16\logs\tmp9j0hkj8k.pyomo.lp' read.
Read time = 0.20 sec. (13.83 ticks)
CPLEX> Problem name         : C:\Users\Luke\Desktop\competitiveMPEC_1.16\logs\tmp9j0hkj8k.pyomo.lp
Objective sense      : Maximize
Variables            :   53321  [Nneg: 889,  Box: 21854,  Free: 3480,
                                 Binary: 27098]
Objective nonzeros   :    8921
Linear constraints   :  122140  [Less: 40959,  Greater: 58612,  Equal: 22569]
  Nonzeros           :  288422
  RHS nonzeros       :   66947

Variables            : Min LB: -5000.000        Max UB: 5000.000       
Objective nonzeros   : Min   : 0.1000000        Max   : 795.1000       
Linear constraints   :
  Nonzeros           : Min   : 0.1000000        Max   : 2910000.       
  RHS nonzeros       : Min   : 0.1000000        Max   : 3000000.       
CPLEX> CPXPARAM_Parallel                                -1
CPXPARAM_Simplex_Tolerances_Feasibility          0.0001
CPXPARAM_DetTimeLimit                            250000
CPXPARAM_MIP_Tolerances_MIPGap                   0.01
Tried aggregator 3 times.
MIP Presolve eliminated 88265 rows and 19095 columns.
MIP Presolve added 3337 rows and 0 columns.
MIP Presolve modified 24456 coefficients.
Aggregator did 12833 substitutions.
Reduced MIP has 24379 rows, 20811 columns, and 68353 nonzeros.
Reduced MIP has 8218 binaries, 0 generals, 0 SOSs, and 0 indicators.
Presolve time = 0.22 sec. (165.93 ticks)
Probing fixed 412 vars, tightened 5995 bounds.
Probing time = 0.06 sec. (20.86 ticks)
Tried aggregator 2 times.
MIP Presolve eliminated 920 rows and 826 columns.
MIP Presolve modified 2969 coefficients.
Aggregator did 46 substitutions.
Reduced MIP has 23413 rows, 19939 columns, and 65549 nonzeros.
Reduced MIP has 7805 binaries, 0 generals, 0 SOSs, and 0 indicators.
Presolve time = 0.11 sec. (87.20 ticks)
Probing fixed 0 vars, tightened 203 bounds.
Probing time = 0.08 sec. (20.88 ticks)
Clique table members: 38145.
MIP emphasis: balance optimality and feasibility.
MIP search method: dynamic search.
Parallel mode: opportunistic, using up to 24 threads.
Root relaxation solution time = 0.39 sec. (607.92 ticks)

        Nodes                                         Cuts/
   Node  Left     Objective  IInf  Best Integer    Best Bound    ItCnt     Gap

      0     0    95952.1260   255                  95952.1260     5950         
      0     0    95133.4703   133                   Cuts: 274     6121         
      0     0    95095.6755   135                    Cuts: 65     6177         
      0     0    95055.9950   123                    Cuts: 40     6214         
      0     0    95055.9950   113                    Cuts: 36     6231         
      0     0    95055.9950   111                    Cuts: 15     6239         
      0     0    95055.6462    75                 Flowcuts: 2     6241         
      0     0    95055.6462    72                     Cuts: 8     6248         
      0    10    87593.7126    54                     Cuts: 4     6291         
Elapsed time = 4.92 sec. (3484.89 ticks, tree = 0.02 MB, solutions = 0)
    533   234    90644.9476    40                  94133.4407     7561         
   1010   753    89650.2859    26                  94133.4407    11351         
   1362  1223    infeasible                        94133.4407    14909         
   1777  1330    82807.9519    28                  94133.4407    16908         
   2289  1668    83899.0555    18                  94133.4407    22353         
   2740  2022    78954.4439    23                  94133.4407    29544         
   3142  2575    80387.4827    23                  94133.4407    37246         
   3558  2787    83276.2678    14                  94133.4407    44965         
   3985  3091    88200.2017    17                  94133.4407    50241         
   5358  4466    94992.1981    55                  94127.6951    77598         
Elapsed time = 18.98 sec. (10741.33 ticks, tree = 37.39 MB, solutions = 0)
   5945   284    90184.8973    40                  92038.5265    80331         
   7212   947    35652.1681    32                  91888.6713    85814         
   9075  2611    84696.3838    28                  91764.0266    94356         
  10542  4244   -40499.3048    68                  91746.5726   110782         
* 11631  4875      integral     0    74782.8786    91190.5965   120970   21.94%
  12426  5266    81143.5079    10    84160.5272    91188.4550   126975    8.35%
  15070  3108    87388.5104    36    84179.9244    91092.7172   148841    8.21%
* 15681  3124      integral     0    85419.2439    91092.7172   148293    6.64%
* 16590  4027      integral     0    86118.0035    91092.7172   157638    5.78%
  17855  2411    89074.5679    42    86118.0035    91092.7172   163413    5.78%
  20435  3311    87716.7030    37    86118.0035    91092.7172   180615    5.78%
* 21982  4516      integral     0    86404.9966    91092.7172   191787    5.43%
* 23300  4942      integral     0    87112.7770    91092.7172   195489    4.57%
  26424  3166    88979.8785    29    87181.2178    91092.7172   205244    4.49%
Elapsed time = 55.84 sec. (20219.14 ticks, tree = 19.88 MB, solutions = 15)
* 26807  3264      integral     0    87300.6466    91092.7172   206578    4.34%
  29020  3987    87402.7893    41    87300.6466    91092.7172   231870    4.34%
* 30403  3960      integral     0    90295.8741    91092.7172   228597    0.88%
  31810  4321        cutoff          90295.8741    91092.7172   236530    0.88%

Cover cuts applied:  31
Implied bound cuts applied:  1
Flow cuts applied:  68
Mixed integer rounding cuts applied:  4
Gomory fractional cuts applied:  8

Root node processing (before b&c):
  Real time             =    4.37 sec. (3450.89 ticks)
Parallel b&c, 24 threads:
  Real time             =   51.67 sec. (21907.91 ticks)
  Sync time (average)   =    0.51 sec.
  Wait time (average)   =    0.06 sec.
                          ------------
Total (root+branch&cut) =   56.05 sec. (25358.80 ticks)

Solution pool: 15 solutions saved.

MIP - Integer optimal, tolerance (0.01/1e-06):  Objective =  9.0295874075e+04
Current MIP best bound =  9.0406113407e+04 (gap = 110.239, 0.12%)
Solution time =   56.05 sec.  Iterations = 259610  Nodes = 32685 (250)
Deterministic time = 25358.95 ticks  (452.47 ticks/sec)

CPLEX> Incumbent solution written to file 'C:\Users\Luke\Desktop\competitiveMPEC_1.16\logs\tmpbq3tcoou.cplex.sol'.
CPLEX> Exporting results... 
